p cnf 20 8
e 1 0
a 2 3 4 0
e 5 0
a 6 0
e 7 0
a 8 0
e 9 10 0
a 11 0
e 12 13 0
a 14 15 0
e 16 0
a 17 18 0
e 19 20 0
-5 2 -9 11 0
11 -14 4 -12 15 0
9 8 1 0
-13 14 -4 0
-17 -9 0
-15 8 -13 12 -20 0
6 -8 14 -4 0
-15 6 0
